<number of tasks>
20


<number of equipment>
5


<cycle time>
1000


<investment costs>
1,16577
2,29882
3,19997
4,23055
5,5543


<task times>
1,183,38,146,-1,-1
2,126,43,137,-1,-1
3,-1,-1,110,91,197
4,161,84,136,-1,-1
5,-1,-1,137,120,249
6,-1,-1,176,193,-1
7,-1,-1,211,152,288
8,152,33,136,-1,-1
9,-1,-1,136,82,285
10,174,143,159,-1,-1
11,157,28,57,-1,-1
12,-1,-1,158,114,-1
13,186,41,148,-1,-1
14,152,32,128,-1,-1
15,-1,-1,237,124,-1
16,-1,-1,66,52,272
17,-1,-1,132,99,277
18,-1,-1,127,98,254
19,164,27,64,-1,-1
20,83,26,133,-1,-1


<precedence relations>
1,8
2,7
3,5
3,6
5,12
6,11
7,9
8,10
9,13
9,14
11,15
11,16
12,17
14,18
14,20
16,19


<task types>
1,3
2,3
3,2
4,3
5,2
6,1
7,2
8,3
9,2
10,3
11,3
12,1
13,3
14,3
15,1
16,2
17,2
18,2
19,3
20,3


<line depot>
1,0
2,0
3,3
4,0
5,0


<processing costs>
1,7200
2,7200
3,21600
4,14400
5,7200


<saving costs>
1,1657
2,2988
3,1999
4,2305
5,554


<end>
